p tw 146 6571 75 
1 83 
1 91 
1 99 
1 107 
1 115 
1 123 
1 131 
1 139 
2 79 
2 87 
2 95 
2 103 
2 111 
2 119 
2 127 
2 135 
2 139 
3 77 
3 85 
3 93 
3 101 
3 109 
3 117 
3 125 
3 133 
3 139 
4 76 
4 84 
4 92 
4 100 
4 108 
4 116 
4 124 
4 132 
4 139 
5 81 
5 89 
5 97 
5 105 
5 113 
5 121 
5 129 
5 137 
5 139 
6 78 
6 86 
6 94 
6 102 
6 110 
6 118 
6 126 
6 134 
6 139 
7 82 
7 90 
7 98 
7 106 
7 114 
7 122 
7 130 
7 138 
7 139 
8 80 
8 88 
8 96 
8 104 
8 112 
8 120 
8 128 
8 136 
8 139 
9 75 
9 84 
9 93 
9 102 
9 111 
9 120 
9 129 
9 138 
9 143 
10 79 
10 88 
10 97 
10 106 
10 107 
10 116 
10 125 
10 134 
10 143 
11 77 
11 86 
11 91 
11 100 
11 113 
11 122 
11 127 
11 136 
11 143 
12 76 
12 83 
12 94 
12 101 
12 112 
12 119 
12 130 
12 137 
12 143 
13 81 
13 90 
13 95 
13 104 
13 109 
13 118 
13 123 
13 132 
13 143 
14 78 
14 85 
14 92 
14 99 
14 114 
14 121 
14 128 
14 135 
14 143 
15 82 
15 89 
15 96 
15 103 
15 110 
15 117 
15 124 
15 131 
15 143 
16 80 
16 87 
16 98 
16 105 
16 108 
16 115 
16 126 
16 133 
16 143 
17 75 
17 89 
17 92 
17 106 
17 109 
17 119 
17 126 
17 136 
17 141 
18 79 
18 85 
18 96 
18 102 
18 113 
18 115 
18 130 
18 132 
18 141 
19 77 
19 87 
19 94 
19 104 
19 107 
19 121 
19 124 
19 138 
19 141 
20 76 
20 90 
20 91 
20 105 
20 110 
20 120 
20 125 
20 135 
20 141 
21 81 
21 83 
21 98 
21 100 
21 111 
21 117 
21 128 
21 134 
21 141 
22 78 
22 88 
22 93 
22 103 
22 108 
22 122 
22 123 
22 137 
22 141 
23 82 
23 84 
23 97 
23 99 
23 112 
23 118 
23 127 
23 133 
23 141 
24 80 
24 86 
24 95 
24 101 
24 114 
24 116 
24 129 
24 131 
24 141 
25 75 
25 86 
25 97 
25 104 
25 108 
25 117 
25 130 
25 135 
25 140 
26 79 
26 90 
26 93 
26 100 
26 112 
26 121 
26 126 
26 131 
26 140 
27 77 
27 84 
27 95 
27 106 
27 110 
27 115 
27 128 
27 137 
27 140 
28 76 
28 85 
28 98 
28 103 
28 107 
28 118 
28 129 
28 136 
28 140 
29 81 
29 88 
29 91 
29 102 
29 114 
29 119 
29 124 
29 133 
29 140 
30 78 
30 83 
30 96 
30 105 
30 109 
30 116 
30 127 
30 138 
30 140 
31 82 
31 87 
31 92 
31 101 
31 113 
31 120 
31 123 
31 134 
31 140 
32 80 
32 89 
32 94 
32 99 
32 111 
32 122 
32 125 
32 132 
32 140 
33 75 
33 90 
33 94 
33 103 
33 113 
33 116 
33 128 
33 133 
33 145 
34 79 
34 86 
34 98 
34 99 
34 109 
34 120 
34 124 
34 137 
34 145 
35 77 
35 88 
35 92 
35 105 
35 111 
35 118 
35 130 
35 131 
35 145 
36 76 
36 89 
36 93 
36 104 
36 114 
36 115 
36 127 
36 134 
36 145 
37 81 
37 84 
37 96 
37 101 
37 107 
37 122 
37 126 
37 135 
37 145 
38 78 
38 87 
38 91 
38 106 
38 112 
38 117 
38 129 
38 132 
38 145 
39 82 
39 83 
39 95 
39 102 
39 108 
39 121 
39 125 
39 136 
39 145 
40 80 
40 85 
40 97 
40 100 
40 110 
40 119 
40 123 
40 138 
40 145 
41 75 
41 88 
41 98 
41 101 
41 110 
41 121 
41 127 
41 132 
41 142 
42 79 
42 84 
42 94 
42 105 
42 114 
42 117 
42 123 
42 136 
42 142 
43 77 
43 90 
43 96 
43 99 
43 108 
43 119 
43 129 
43 134 
43 142 
44 76 
44 87 
44 97 
44 102 
44 109 
44 122 
44 128 
44 131 
44 142 
45 81 
45 86 
45 92 
45 103 
45 112 
45 115 
45 125 
45 138 
45 142 
46 78 
46 89 
46 95 
46 100 
46 107 
46 120 
46 130 
46 133 
46 142 
47 82 
47 85 
47 91 
47 104 
47 111 
47 116 
47 126 
47 137 
47 142 
48 80 
48 83 
48 93 
48 106 
48 113 
48 118 
48 124 
48 135 
48 142 
49 75 
49 87 
49 96 
49 100 
49 114 
49 118 
49 125 
49 137 
49 146 
50 79 
50 83 
50 92 
50 104 
50 110 
50 122 
50 129 
50 133 
50 146 
51 77 
51 89 
51 98 
51 102 
51 112 
51 116 
51 123 
51 135 
51 146 
52 76 
52 88 
52 95 
52 99 
52 113 
52 117 
52 126 
52 138 
52 146 
53 81 
53 85 
53 94 
53 106 
53 108 
53 120 
53 127 
53 131 
53 146 
54 78 
54 90 
54 97 
54 101 
54 111 
54 115 
54 124 
54 136 
54 146 
55 82 
55 86 
55 93 
55 105 
55 107 
55 119 
55 128 
55 132 
55 146 
56 80 
56 84 
56 91 
56 103 
56 109 
56 121 
56 130 
56 134 
56 146 
57 75 
57 85 
57 95 
57 105 
57 112 
57 122 
57 124 
57 134 
57 144 
58 79 
58 89 
58 91 
58 101 
58 108 
58 118 
58 128 
58 138 
58 144 
59 77 
59 83 
59 97 
59 103 
59 114 
59 120 
59 126 
59 132 
59 144 
60 76 
60 86 
60 96 
60 106 
60 111 
60 121 
60 123 
60 133 
60 144 
61 81 
61 87 
61 93 
61 99 
61 110 
61 116 
61 130 
61 136 
61 144 
62 78 
62 84 
62 98 
62 104 
62 113 
62 119 
62 125 
62 131 
62 144 
63 82 
63 88 
63 94 
63 100 
63 109 
63 115 
63 129 
63 135 
63 144 
64 80 
64 90 
64 92 
64 102 
64 107 
64 117 
64 127 
64 137 
64 144 
65 74 
65 75 
65 76 
65 77 
65 78 
65 79 
65 80 
65 81 
65 82 
66 74 
66 83 
66 84 
66 85 
66 86 
66 87 
66 88 
66 89 
66 90 
67 74 
67 91 
67 92 
67 93 
67 94 
67 95 
67 96 
67 97 
67 98 
68 74 
68 99 
68 100 
68 101 
68 102 
68 103 
68 104 
68 105 
68 106 
69 74 
69 107 
69 108 
69 109 
69 110 
69 111 
69 112 
69 113 
69 114 
70 74 
70 115 
70 116 
70 117 
70 118 
70 119 
70 120 
70 121 
70 122 
71 74 
71 123 
71 124 
71 125 
71 126 
71 127 
71 128 
71 129 
71 130 
72 74 
72 131 
72 132 
72 133 
72 134 
72 135 
72 136 
72 137 
72 138 
73 74 
73 139 
73 140 
73 141 
73 142 
73 143 
73 144 
73 145 
73 146 
